
%BLOCK lattice_abc
2.465719 4.2707505 20.00
  90.0 90.0 90.0
%ENDBLOCK lattice_abc

%BLOCK POSITIONS_FRAC
C   0.000000000000000   0.000000000000000   0.000000000000000 
C   0.000000000000000   0.333333333333333   0.000000000000000
C   0.500000000000000   0.500000000000000   0.000000000000000  
C   0.500000000000000   0.833333333333333   0.000000000000000
%ENDBLOCK POSITIONS_FRAC

%BLOCK SPECIES_POT
C  2|1.4|9.187|11.025|12.862|20UU:21UU(qc=6)[]
%ENDBLOCK SPECIES_POT

symmetry_generate

#%BLOCK CELL_CONSTRAINTS
#       1       1       0
#       0       0       0
#%ENDBLOCK CELL_CONSTRAINTS

KPOINTS_MP_GRID 11 7 1

