 $CONTRL SCFTYP=RHF RUNTYP=OPTIMIZE $END
 $BASIS GBASIS=STO NGAUSS=3 $END
 $DATA
STO3G NH3
CNV 3

N 7  0.0000000000  0.0000000000 -0.1592817187
H 1  0.7581807764  0.0000000000  0.4764258594
 $END

