%CPU=
%Mem=
%Chk=gaussian_example_cpu.chk
%rwf=water.rwf
#opt HF/3-21g

! this is a comment, and it is ignored by Gaussian
water molecule energy and geometry optimization

0 1
O 0.000000 0.000000 0.062600
H -0.792701 0.000000 -0.497300
H 0.792701 0.000000 -0.497300

1 2 3
2 1
3 1