$molecule
0 1
6 -0.114601 1.892903 0.000000
6 0.114601 -1.892903 0.000000
8 1.120606 1.459342 0.000000
8 -1.120606 -1.459342 0.000000
1 1.125662 0.462528 0.000000
1 -1.125662 -0.462528 0.000000
8 -1.120606 1.203465 0.000000
8 1.120606 -1.203465 0.000000
1 -0.161443 2.982339 0.000000
1 0.161443 -2.982339 0.000000
$end

$rem
jobtype opt
exchange b3lyp
basis cc-pVTZ
$end

